N = 100;
MinK = 10;
Capacity = 200;

Scale = 10;
DistanceRoundingMode = Floor;
X = array1d(0..N, [40, 45, 45, 42, 42, 42, 40, 40, 38, 38, 35, 35, 25, 22, 22, 20, 20, 18, 15, 15, 30, 30, 28, 28, 25, 25, 25, 23, 23, 20, 20, 10, 10, 8, 8, 5, 5, 2, 0, 0, 35, 35, 33, 33, 32, 30, 30, 30, 28, 28, 26, 25, 25, 44, 42, 42, 40, 40, 38, 38, 35, 50, 50, 50, 48, 48, 47, 47, 45, 45, 95, 95, 53, 92, 53, 45, 90, 88, 88, 87, 85, 85, 75, 72, 70, 68, 66, 65, 65, 63, 60, 60, 67, 65, 65, 62, 60, 60, 58, 55, 55]);
Y = array1d(0..N, [50, 68, 70, 66, 68, 65, 69, 66, 68, 70, 66, 69, 85, 75, 85, 80, 85, 75, 75, 80, 50, 52, 52, 55, 50, 52, 55, 52, 55, 50, 55, 35, 40, 40, 45, 35, 45, 40, 40, 45, 30, 32, 32, 35, 30, 30, 32, 35, 30, 35, 32, 30, 35, 5, 10, 15, 5, 15, 5, 15, 5, 30, 35, 40, 30, 40, 35, 40, 30, 35, 30, 35, 30, 30, 35, 65, 35, 30, 35, 30, 25, 35, 55, 55, 58, 60, 55, 55, 60, 58, 55, 60, 85, 85, 82, 80, 80, 85, 75, 80, 85]);

Demands = array1d(1..N, [10, 30, 10, 10, 10, 20, 20, 20, 10, 10, 10, 20, 30, 10, 40, 40, 20, 20, 10, 10, 20, 20, 10, 10, 40, 10, 10, 20, 10, 10, 20, 30, 40, 20, 10, 10, 20, 30, 20, 10, 10, 20, 10, 10, 10, 30, 10, 10, 10, 10, 10, 10, 20, 40, 10, 30, 40, 30, 10, 20, 10, 20, 50, 10, 10, 10, 10, 10, 10, 30, 20, 10, 10, 50, 20, 10, 10, 20, 10, 10, 30, 20, 10, 20, 30, 10, 20, 30, 10, 10, 10, 20, 40, 10, 30, 10, 30, 20, 10, 20]);

ServiceTimes = array1d(1..N, [90, 90, 90, 90, 90, 90, 90, 90, 90, 90, 90, 90, 90, 90, 90, 90, 90, 90, 90, 90, 90, 90, 90, 90, 90, 90, 90, 90, 90, 90, 90, 90, 90, 90, 90, 90, 90, 90, 90, 90, 90, 90, 90, 90, 90, 90, 90, 90, 90, 90, 90, 90, 90, 90, 90, 90, 90, 90, 90, 90, 90, 90, 90, 90, 90, 90, 90, 90, 90, 90, 90, 90, 90, 90, 90, 90, 90, 90, 90, 90, 90, 90, 90, 90, 90, 90, 90, 90, 90, 90, 90, 90, 90, 90, 90, 90, 90, 90, 90, 90]);

TimeWindows = array2d(1..2, 0..N, [|
     0,    0,    0,    0, 727,    0,    0,    0, 255, 534,    0, 448,    0, 30,    0, 384,    0,    0,    0,    0,    0,    0,    0, 732,    0, 169,    0,    0,    0,    0,    0,    0,    0,    0,    0,    0,    0,    0, 479,    0,    0,    0,    0,    0, 359,    0,    0,    0,    0,    0,    0,    0,    0, 286,    0,  95,    0,    0, 471,    0,    0,    0, 262,    0,    0,    0,    0, 12,    0, 916,    0,    0,    0,    0, 353,    0, 203, 574,    0, 668,    0,    0,    0,    0, 458,    0,    0,  85,    0,    0,    0,    0, 368,    0,    0,    0,    0,    0,    0, 743, 647 |
  1236, 1127, 1125, 1129, 782, 1130, 1127, 1130, 324, 605, 1129, 505, 1107, 92, 1106, 429, 1105, 1112, 1110, 1106, 1136, 1135, 1133, 777, 1131, 224, 1130, 1128, 1128, 1126, 1125, 1112, 1114, 1112, 1113, 1107, 1110, 1106, 522, 1105, 1125, 1127, 1126, 1129, 412, 1123, 1125, 1127, 1122, 1126, 1123, 1121, 1124, 347, 1105, 158, 1101, 1111, 534, 1110, 1100, 1123, 317, 1131, 1124, 1133, 1129, 77, 1125, 969, 1087, 1088, 1122, 1090, 412, 1130, 260, 643, 1095, 731, 1094, 1098, 1110, 1113, 523, 1116, 1119, 144, 1119, 1121, 1125, 1123, 441, 1102, 1105, 1108, 1109, 1105, 1115, 820, 726
|]);
